Al 
 1.0000000000000000
    12.6572113832392024    0.0000000000000000    0.0000000000000000
     0.0000000000000000   12.6572113832392024    0.0000000000000000
     0.0000000000000000    0.0000000000000000   21.7899999999999991
 Al 
  50
Cartesian
  1.2657211383239202  1.2657211383239202  0.1000000000000170
  3.7971634149717604  1.2657211383239202  0.1000000000000170
  6.3286056916196012  1.2657211383239202  0.1000000000000170
  8.8600479682674411  1.2657211383239202  0.1000000000000170
 11.3914902449152819  1.2657211383239202  0.1000000000000170
  1.2657211383239202  3.7971634149717604  0.1000000000000170
  3.7971634149717604  3.7971634149717604  0.1000000000000170
  6.3286056916196012  3.7971634149717604  0.1000000000000170
  8.8600479682674411  3.7971634149717604  0.1000000000000170
 11.3914902449152819  3.7971634149717604  0.1000000000000170
  1.2657211383239202  6.3286056916196012  0.1000000000000170
  3.7971634149717604  6.3286056916196012  0.1000000000000170
  6.3286056916196012  6.3286056916196012  0.1000000000000170
  8.8600479682674411  6.3286056916196012  0.1000000000000170
 11.3914902449152819  6.3286056916196012  0.1000000000000170
  1.2657211383239202  8.8600479682674411  0.1000000000000170
  3.7971634149717604  8.8600479682674411  0.1000000000000170
  6.3286056916196012  8.8600479682674411  0.1000000000000170
  8.8600479682674411  8.8600479682674411  0.1000000000000170
 11.3914902449152819  8.8600479682674411  0.1000000000000170
  1.2657211383239202 11.3914902449152819  0.1000000000000170
  3.7971634149717604 11.3914902449152819  0.1000000000000170
  6.3286056916196012 11.3914902449152819  0.1000000000000170
  8.8600479682674411 11.3914902449152819  0.1000000000000170
 11.3914902449152819 11.3914902449152819  0.1000000000000170
  0.0000000000000000 -0.0000000000000006  1.8900000000000245
  2.5314422766478404 -0.0000000000000006  1.8900000000000245
  5.0628845532956808 -0.0000000000000006  1.8900000000000245
  7.5943268299435207 -0.0000000000000006  1.8900000000000245
 10.1257691065913615 -0.0000000000000006  1.8900000000000245
  0.0000000000000000  2.5314422766478404  1.8900000000000245
  2.5314422766478404  2.5314422766478404  1.8900000000000245
  5.0628845532956808  2.5314422766478404  1.8900000000000245
  7.5943268299435207  2.5314422766478404  1.8900000000000245
 10.1257691065913615  2.5314422766478404  1.8900000000000245
  0.0000000000000000  5.0628845532956808  1.8900000000000245
  2.5314422766478404  5.0628845532956808  1.8900000000000245
  5.0628845532956808  5.0628845532956808  1.8900000000000245
  7.5943268299435207  5.0628845532956808  1.8900000000000245
 10.1257691065913615  5.0628845532956808  1.8900000000000245
  0.0000000000000000  7.5943268299435207  1.8900000000000245
  2.5314422766478404  7.5943268299435207  1.8900000000000245
  5.0628845532956808  7.5943268299435207  1.8900000000000245
  7.5943268299435207  7.5943268299435207  1.8900000000000245
 10.1257691065913615  7.5943268299435207  1.8900000000000245
  0.0000000000000000 10.1257691065913615  1.8900000000000245
  2.5314422766478404 10.1257691065913615  1.8900000000000245
  5.0628845532956808 10.1257691065913615  1.8900000000000245
  7.5943268299435207 10.1257691065913615  1.8900000000000245
 10.1257691065913615 10.1257691065913615  1.8900000000000245
