Al 
 1.0000000000000000
     4.0400000000000000    0.0000000000000000    0.0000000000000000
     0.0000000000000000    4.0400000000000000    0.0000000000000000
     0.0000000000000000    0.0000000000000000    4.0400000000000000
 Al 
   4
Direct
  0.0000000000000000  0.0000000000000000  0.0000000000000000
  0.0000000000000000  0.5000000000000000  0.8000000000000000
  0.5000000000000000  0.0000000000000000  0.8000000000000000
  0.9000000000000000  0.5000000000000000  0.0000000000000000
